NAME : E101B11r.1935.tour
COMMENT : Cost = 0_1935
COMMENT : Found by LKH [Keld Helsgaun] Sun May  7 02:12:49 2017
TYPE : TOUR
DIMENSION : 111
TOUR_SECTION
1
7
9
10
3
2
11
6
4
5
17
106
26
28
16
13
104
63
64
57
79
78
80
77
81
52
53
109
100
27
21
20
103
19
93
91
98
24
12
108
65
66
67
45
30
61
51
88
85
87
83
82
86
84
14
22
102
71
73
72
70
62
110
94
90
96
99
95
89
92
97
18
111
56
58
44
39
43
46
36
50
54
107
69
33
59
68
31
29
42
40
41
34
32
37
48
49
35
38
47
55
60
105
25
76
75
74
15
23
101
8
-1
EOF
